Li4 Sc4 Ge4 O16
1.0
10.673000 0.000000 0.000000
0.000000 5.992600 0.000000
0.000000 0.000000 4.966700
O Ge Sc Li
16 4 4 4
direct
0.597300 0.250000 0.704200 O2-
0.097300 0.250000 0.795800 O2-
0.402700 0.750000 0.295800 O2-
0.902700 0.750000 0.204200 O2-
0.942600 0.250000 0.301200 O2-
0.442600 0.250000 0.198800 O2-
0.057400 0.750000 0.698800 O2-
0.557400 0.750000 0.801200 O2-
0.673000 0.030000 0.214000 O2-
0.173000 0.470000 0.286000 O2-
0.327000 0.530000 0.786000 O2-
0.827000 0.970000 0.714000 O2-
0.327000 0.970000 0.786000 O2-
0.827000 0.530000 0.714000 O2-
0.673000 0.470000 0.214000 O2-
0.173000 0.030000 0.286000 O2-
0.590100 0.250000 0.052600 Ge4+
0.090100 0.250000 0.447400 Ge4+
0.409900 0.750000 0.947400 Ge4+
0.909900 0.750000 0.552600 Ge4+
0.771500 0.250000 0.497100 Sc3+
0.271500 0.250000 0.002900 Sc3+
0.228500 0.750000 0.502900 Sc3+
0.728500 0.750000 0.997100 Sc3+
0.500000 0.000000 0.500000 Li+
0.000000 0.500000 0.000000 Li+
0.500000 0.500000 0.500000 Li+
0.000000 0.000000 0.000000 Li+
