algo = fast
ediff = 0.0001
ediffg = -0.05
encut = 600.0
gga = pe
ibrion = 3
ichain = 0
icharg = 2
images = 14
iopt = 1
isif = 2
ismear = 0
istart = 0
lcharg = False
lclimb = True
lreal = auto
lwave = False
nelect = 128
nelm = 60
nelmin = 2
npar = 2
nsw = 1000
potim = 0
pp = pbe
prec = accurate
sigma = 0.2
spring = -5
