He14 Li4 Sc4 Ge4 O16
1.0
10.673000 0.000000 0.000000
0.000000 5.992600 0.000000
0.000000 0.000000 4.966700
He O Ge Sc Li
14 16 4 4 4
direct
0.530400 0.535800 0.521600 He
0.538500 0.571500 0.489700 He
0.553200 0.607100 0.478200 He
0.568200 0.642800 0.478200 He
0.576900 0.678600 0.460300 He
0.583700 0.714300 0.434800 He
0.596000 0.750000 0.417300 He
0.596100 0.752700 0.418000 He
0.592200 0.796000 0.434800 He
0.576900 0.835600 0.434800 He
0.576900 0.869600 0.475100 He
0.561700 0.904400 0.478300 He
0.551000 0.948700 0.478300 He
0.537700 0.982900 0.502100 He
0.597300 0.250000 0.704200 O
0.097300 0.250000 0.795800 O
0.402700 0.750000 0.295800 O
0.902700 0.750000 0.204200 O
0.942600 0.250000 0.301200 O
0.442600 0.250000 0.198800 O
0.057400 0.750000 0.698800 O
0.557400 0.750000 0.801200 O
0.673000 0.030000 0.214000 O
0.173000 0.470000 0.286000 O
0.327000 0.530000 0.786000 O
0.827000 0.970000 0.714000 O
0.327000 0.970000 0.786000 O
0.827000 0.530000 0.714000 O
0.673000 0.470000 0.214000 O
0.173000 0.030000 0.286000 O
0.590100 0.250000 0.052600 Ge
0.090100 0.250000 0.447400 Ge
0.409900 0.750000 0.947400 Ge
0.909900 0.750000 0.552600 Ge
0.771500 0.250000 0.497100 Sc
0.271500 0.250000 0.002900 Sc
0.228500 0.750000 0.502900 Sc
0.728500 0.750000 0.997100 Sc
0.500000 0.000000 0.500000 Li
0.000000 0.500000 0.000000 Li
0.500000 0.500000 0.500000 Li
0.000000 0.000000 0.000000 Li
